79
125
99	3
98	3
97	2
96	2
95	3
93	2
92	3
91	1
90	1
89	2
88	3
87	2
86	4
85	3
84	4
83	2
82	6
81	2
80	2
79	4
78	3
76	3
75	3
74	1
73	4
72	4
71	1
70	2
69	1
68	1
67	2
66	3
65	2
64	3
63	3
62	2
60	2
59	3
58	1
57	3
55	5
53	2
52	3
51	5
50	1
49	4
47	2
46	1
45	1
44	3
43	7
42	3
41	1
40	3
39	2
38	2
37	2
36	1
35	3
34	3
33	4
32	3
31	2
30	1
28	1
25	1
24	2
23	4
22	1
21	3
20	5
19	3
18	2
17	1
16	2
15	1
14	3
13	2
12	4
